\ENCODING=ISO-8859-1
\Problem name: 

Maximize
 obj: - a0 + a1 + a2 + 0.5 a3 + a4 + a6 + a7 + 0.5 a9 + 0.5 a10 + a11 + a12
      + a13 + a15 + 0.5 a16 + a20 + a21 + a23 + a24 + a25 + a26 + 0.5 a28
      + 0.5 a29 + a31 + a33 + 0.5 a34 + a35 + 0.5 a36 + a39 + a40 + 0.5 a41
      + 0.5 a42 + a43 + a44 + a45 + 0.5 a48 + a52 + a57 + 0.5 a59 + 0.5 a61
      + a69 + 0.5 a73 + 0.5 a74 + 0.5 a75 + a77 + a78 + 0.5 a84 + 0.5 a85 + a95
      + 0.5 a96 + 0.5 a99 + 0.5 a100 + 0.5 a101 + a104 + 0.5 a109 + 0.5 a113
      + a115 + a117 + 0.5 a122 + 0.5 a124
Subject To
 c1:   - a0 - f0 + u1 - u2 + u3 - u4 + u5 - u6 + u7 - u8 + u9 - u10 + u11 - u12
       + u13 - u14 + u15 - u16 + u17 - u18 + u19 - u20 + u21 - u22 + u23 - u24
       + u25 - u26 + u27 - u28 + u29 - u30 + u31 - u32 + u33 - u34 + u35 - u36
       + u37 - u38 + u39 - u40 + u41 - u42 + u43 - u44 + u45 - u46 + u47 - u48
       + u49 - u50 + u51 - u52 + u53 - u54 + u55 - u56 + u57 - u58 + u59 - u60
       + u61 - u62 + u63 - u64 + u65 - u66 + u67 - u68 + u69 - u70 + u71 - u72
       + u73 - u74 + u75 - u76 + u77 - u78 + u79 - u80 + u81 - u82 + u83 - u84
       + u85 - u86 + u87 - u88 + u89 - u90 + u91 - u92 + u93 - u94 + u95 - u96
       + u97 - u98 + u99 - u100 + u101 - u102 + u103 - u104 + u105 - u106
       + u107 - u108 + u109 - u110 + u111 - u112 + u113 - u114 + u115 - u116
       + u117 - u118 + u119 - u120 + 2 u121 - 2 u122 + 2 u123 - 2 u124 + 2 u125
       - 2 u126 + 2 u127 - 2 u128 + 2 u129 - 2 u130 + 2 u131 - 2 u132 + 2 u133
       - 2 u134 + 2 u135 - 2 u136 + 2 u137 - 2 u138 + 2 u139 - 2 u140 + 2 u141
       - 2 u142 + 2 u143 - 2 u144 + 2 u145 - 2 u146 + 2 u147 - 2 u148 + 2 u149
       - 2 u150 + 2 u151 - 2 u152 + 2 u153 - 2 u154 + 2 u155 - 2 u156 + 2 u157
       - 2 u158 + 2 u159 - 2 u160 + 2 u161 - 2 u162 + 2 u163 - 2 u164 + 2 u165
       - 2 u166 + 2 u167 - 2 u168 + 2 u169 - 2 u170 + 2 u171 - 2 u172 + 2 u173
       - 2 u174 + 2 u175 - 2 u176  = 0
 c2:   - a1 - f1 + u121 - u122 + u123 - u124  = 0
 c3:   - a2 - f2 + u1 - u2 + u123 - u124 + u125 - u126  = 0
 c4:   - a3 - f3 + u3 - u4 + u125 - u126 + u127 - u128  = 0
 c5:   - a4 - f4 + u5 - u6 + u127 - u128 + u129 - u130  = 0
 c6:   - a6 - f6 + u9 - u10 + u131 - u132 + u133 - u134  = 0
 c7:   - a7 - f7 + u121 - u122 + u135 - u136  = 0
 c8:   - a9 - f9 + u13 - u14 + u125 - u126 + u139 - u140  = 0
 c9:   - a10 - f10 + u15 - u16 + u127 - u128 + u141 - u142  = 0
 c10:  - a11 - f11 + u17 - u18 + u129 - u130 + u143 - u144  = 0
 c11:  - a12 - f12 + u19 - u20 + u131 - u132 + u145 - u146  = 0
 c12:  - a13 - f13 + u21 - u22 + u133 - u134 + u147 - u148  = 0
 c13:  - a15 - f15 + u25 - u26 + u137 - u138 + u139 - u140  = 0
 c14:  - a16 - f16 + u27 - u28 + u139 - u140 + u141 - u142  = 0
 c15:  - a20 - f20 + u35 - u36 + u135 - u136 + u149 - u150  = 0
 c16:  - a21 - f21 + u37 - u38 + u137 - u138 + u151 - u152  = 0
 c17:  - a23 - f23 + u41 - u42 + u141 - u142 + u155 - u156  = 0
 c18:  - a24 - f24 + u43 - u44 + u143 - u144 + u157 - u158  = 0
 c19:  - a25 - f25 + u45 - u46 + u145 - u146 + u159 - u160  = 0
 c20:  - a26 - f26 + u47 - u48 + u147 - u148 + u161 - u162  = 0
 c21:  - a28 - f28 + u51 - u52 + u151 - u152 + u153 - u154  = 0
 c22:  - a29 - f29 + u53 - u54 + u153 - u154 + u155 - u156  = 0
 c23:  - a31 - f31 + u57 - u58 + u157 - u158 + u159 - u160  = 0
 c24:  - a33 - f33 + u61 - u62 + u149 - u150 + u163 - u164  = 0
 c25:  - a34 - f34 + u63 - u64 + u151 - u152 + u165 - u166  = 0
 c26:  - a35 - f35 + u65 - u66 + u153 - u154 + u167 - u168  = 0
 c27:  - a36 - f36 + u67 - u68 + u155 - u156 + u169 - u170  = 0
 c28:  - a39 - f39 + u73 - u74 + u161 - u162 + u175 - u176  = 0
 c29:  - a40 - f40 + u75 - u76 + u163 - u164 + u165 - u166  = 0
 c30:  - a41 - f41 + u77 - u78 + u165 - u166 + u167 - u168  = 0
 c31:  - a42 - f42 + u79 - u80 + u167 - u168 + u169 - u170  = 0
 c32:  - a43 - f43 + u81 - u82 + u169 - u170 + u171 - u172  = 0
 c33:  - a44 - f44 + u83 - u84 + u171 - u172 + u173 - u174  = 0
 c34:  - a45 - f45 + u85 - u86 + u173 - u174 + u175 - u176  = 0
 c35:  - a48 - f48 + u3 - u4 + u89 - u90  = 0
 c36:  - a52 - f52 + u7 - u8 + u93 - u94  = 0
 c37:  - a57 - f57 + u11 - u12 + u87 - u88  = 0
 c38:  - a59 - f59 + u13 - u14 + u89 - u90  = 0
 c39:  - a61 - f61 + u15 - u16 + u91 - u92  = 0
 c40:  - a69 - f69 + u23 - u24 + u97 - u98  = 0
 c41:  - a73 - f73 + u27 - u28 + u101 - u102  = 0
 c42:  - a74 - f74 + u29 - u30 + u91 - u92  = 0
 c43:  - a75 - f75 + u29 - u30 + u103 - u104  = 0
 c44:  - a77 - f77 + u31 - u32 + u105 - u106  = 0
 c45:  - a78 - f78 + u33 - u34 + u95 - u96  = 0
 c46:  - a84 - f84 + u39 - u40 + u99 - u100  = 0
 c47:  - a85 - f85 + u39 - u40 + u101 - u102  = 0
 c48:  - a95 - f95 + u49 - u50 + u109 - u110  = 0
 c49:  - a96 - f96 + u51 - u52 + u99 - u100  = 0
 c50:  - a99 - f99 + u53 - u54 + u113 - u114  = 0
 c51:  - a100 - f100 + u55 - u56 + u103 - u104  = 0
 c52:  - a101 - f101 + u55 - u56 + u115 - u116  = 0
 c53:  - a104 - f104 + u59 - u60 + u107 - u108  = 0
 c54:  - a109 - f109 + u63 - u64 + u111 - u112  = 0
 c55:  - a113 - f113 + u67 - u68 + u115 - u116  = 0
 c56:  - a115 - f115 + u69 - u70 + u117 - u118  = 0
 c57:  - a117 - f117 + u71 - u72 + u119 - u120  = 0
 c58:  - a122 - f122 + u77 - u78 + u111 - u112  = 0
 c59:  - a124 - f124 + u79 - u80 + u113 - u114  = 0
 c60:  u121 - u122 + u123 - u124  = 0
 c61:  u1 - u2 + u123 - u124 + u125 - u126  = 0
 c62:  u3 - u4 + u125 - u126 + u127 - u128  = 0
 c63:  u5 - u6 + u127 - u128 + u129 - u130  = 0
 c64:  u7 - u8 + u129 - u130 + u131 - u132  = 0
 c65:  u9 - u10 + u131 - u132 + u133 - u134  = 0
 c66:  u121 - u122 + u135 - u136  = 0
 c67:  u11 - u12 + u123 - u124 + u137 - u138  = 0
 c68:  u13 - u14 + u125 - u126 + u139 - u140  = 0
 c69:  u15 - u16 + u127 - u128 + u141 - u142  = 0
 c70:  u17 - u18 + u129 - u130 + u143 - u144  = 0
 c71:  u19 - u20 + u131 - u132 + u145 - u146  = 0
 c72:  u21 - u22 + u133 - u134 + u147 - u148  = 0
 c73:  u23 - u24 + u135 - u136 + u137 - u138  = 0
 c74:  u25 - u26 + u137 - u138 + u139 - u140  = 0
 c75:  u27 - u28 + u139 - u140 + u141 - u142  = 0
 c76:  u29 - u30 + u141 - u142 + u143 - u144  = 0
 c77:  u31 - u32 + u143 - u144 + u145 - u146  = 0
 c78:  u33 - u34 + u145 - u146 + u147 - u148  = 0
 c79:  u35 - u36 + u135 - u136 + u149 - u150  = 0
 c80:  u37 - u38 + u137 - u138 + u151 - u152  = 0
 c81:  u39 - u40 + u139 - u140 + u153 - u154  = 0
 c82:  u41 - u42 + u141 - u142 + u155 - u156  = 0
 c83:  u43 - u44 + u143 - u144 + u157 - u158  = 0
 c84:  u45 - u46 + u145 - u146 + u159 - u160  = 0
 c85:  u47 - u48 + u147 - u148 + u161 - u162  = 0
 c86:  u49 - u50 + u149 - u150 + u151 - u152  = 0
 c87:  u51 - u52 + u151 - u152 + u153 - u154  = 0
 c88:  u53 - u54 + u153 - u154 + u155 - u156  = 0
 c89:  u55 - u56 + u155 - u156 + u157 - u158  = 0
 c90:  u57 - u58 + u157 - u158 + u159 - u160  = 0
 c91:  u59 - u60 + u159 - u160 + u161 - u162  = 0
 c92:  u61 - u62 + u149 - u150 + u163 - u164  = 0
 c93:  u63 - u64 + u151 - u152 + u165 - u166  = 0
 c94:  u65 - u66 + u153 - u154 + u167 - u168  = 0
 c95:  u67 - u68 + u155 - u156 + u169 - u170  = 0
 c96:  u69 - u70 + u157 - u158 + u171 - u172  = 0
 c97:  u71 - u72 + u159 - u160 + u173 - u174  = 0
 c98:  u73 - u74 + u161 - u162 + u175 - u176  = 0
 c99:  u75 - u76 + u163 - u164 + u165 - u166  = 0
 c100: u77 - u78 + u165 - u166 + u167 - u168  = 0
 c101: u79 - u80 + u167 - u168 + u169 - u170  = 0
 c102: u81 - u82 + u169 - u170 + u171 - u172  = 0
 c103: u83 - u84 + u171 - u172 + u173 - u174  = 0
 c104: u85 - u86 + u173 - u174 + u175 - u176  = 0
 c105: u1 - u2 + u87 - u88 <= 0
 c106: u1 - u2 <= 0
 c107: u3 - u4 + u89 - u90 <= 0
 c108: u3 - u4 <= 0
 c109: u5 - u6 + u91 - u92 <= 0
 c110: u5 - u6 <= 0
 c111: u7 - u8 + u93 - u94 <= 0
 c112: u7 - u8 <= 0
 c113: u9 - u10 + u95 - u96 <= 0
 c114: u9 - u10 <= 0
 c115: u11 - u12 <= 0
 c116: u11 - u12 + u87 - u88 <= 0
 c117: u13 - u14 + u87 - u88 <= 0
 c118: u13 - u14 + u89 - u90 <= 0
 c119: u15 - u16 + u89 - u90 <= 0
 c120: u15 - u16 + u91 - u92 <= 0
 c121: u17 - u18 + u91 - u92 <= 0
 c122: u17 - u18 + u93 - u94 <= 0
 c123: u19 - u20 + u93 - u94 <= 0
 c124: u19 - u20 + u95 - u96 <= 0
 c125: u21 - u22 + u95 - u96 <= 0
 c126: u21 - u22 <= 0
 c127: u23 - u24 <= 0
 c128: u23 - u24 + u97 - u98 <= 0
 c129: u25 - u26 + u87 - u88 <= 0
 c130: u25 - u26 + u99 - u100 <= 0
 c131: u27 - u28 + u89 - u90 <= 0
 c132: u27 - u28 + u101 - u102 <= 0
 c133: u29 - u30 + u91 - u92 <= 0
 c134: u29 - u30 + u103 - u104 <= 0
 c135: u31 - u32 + u93 - u94 <= 0
 c136: u31 - u32 + u105 - u106 <= 0
 c137: u33 - u34 + u95 - u96 <= 0
 c138: u33 - u34 + u107 - u108 <= 0
 c139: u35 - u36 + u97 - u98 <= 0
 c140: u35 - u36 <= 0
 c141: u37 - u38 + u97 - u98 <= 0
 c142: u37 - u38 + u99 - u100 <= 0
 c143: u39 - u40 + u99 - u100 <= 0
 c144: u39 - u40 + u101 - u102 <= 0
 c145: u41 - u42 + u101 - u102 <= 0
 c146: u41 - u42 + u103 - u104 <= 0
 c147: u43 - u44 + u103 - u104 <= 0
 c148: u43 - u44 + u105 - u106 <= 0
 c149: u45 - u46 + u105 - u106 <= 0
 c150: u45 - u46 + u107 - u108 <= 0
 c151: u47 - u48 + u107 - u108 <= 0
 c152: u47 - u48 <= 0
 c153: u49 - u50 + u97 - u98 <= 0
 c154: u49 - u50 + u109 - u110 <= 0
 c155: u51 - u52 + u99 - u100 <= 0
 c156: u51 - u52 + u111 - u112 <= 0
 c157: u53 - u54 + u101 - u102 <= 0
 c158: u53 - u54 + u113 - u114 <= 0
 c159: u55 - u56 + u103 - u104 <= 0
 c160: u55 - u56 + u115 - u116 <= 0
 c161: u57 - u58 + u105 - u106 <= 0
 c162: u57 - u58 + u117 - u118 <= 0
 c163: u59 - u60 + u107 - u108 <= 0
 c164: u59 - u60 + u119 - u120 <= 0
 c165: u61 - u62 + u109 - u110 <= 0
 c166: u61 - u62 <= 0
 c167: u63 - u64 + u109 - u110 <= 0
 c168: u63 - u64 + u111 - u112 <= 0
 c169: u65 - u66 + u111 - u112 <= 0
 c170: u65 - u66 + u113 - u114 <= 0
 c171: u67 - u68 + u113 - u114 <= 0
 c172: u67 - u68 + u115 - u116 <= 0
 c173: u69 - u70 + u115 - u116 <= 0
 c174: u69 - u70 + u117 - u118 <= 0
 c175: u71 - u72 + u117 - u118 <= 0
 c176: u71 - u72 + u119 - u120 <= 0
 c177: u73 - u74 + u119 - u120 <= 0
 c178: u73 - u74 <= 0
 c179: u75 - u76 + u109 - u110 <= 0
 c180: u75 - u76 <= 0
 c181: u77 - u78 + u111 - u112 <= 0
 c182: u77 - u78 <= 0
 c183: u79 - u80 + u113 - u114 <= 0
 c184: u79 - u80 <= 0
 c185: u81 - u82 + u115 - u116 <= 0
 c186: u81 - u82 <= 0
 c187: u83 - u84 + u117 - u118 <= 0
 c188: u83 - u84 <= 0
 c189: u85 - u86 + u119 - u120 <= 0
 c190: u85 - u86 <= 0
 c191:  = 0
Bounds
      a0 Free
      a1 Free
      a2 Free
      a3 Free
      a4 Free
      a6 Free
      a7 Free
      a9 Free
      a10 Free
      a11 Free
      a12 Free
      a13 Free
      a15 Free
      a16 Free
      a20 Free
      a21 Free
      a23 Free
      a24 Free
      a25 Free
      a26 Free
      a28 Free
      a29 Free
      a31 Free
      a33 Free
      a34 Free
      a35 Free
      a36 Free
      a39 Free
      a40 Free
      a41 Free
      a42 Free
      a43 Free
      a44 Free
      a45 Free
      a48 Free
      a52 Free
      a57 Free
      a59 Free
      a61 Free
      a69 Free
      a73 Free
      a74 Free
      a75 Free
      a77 Free
      a78 Free
      a84 Free
      a85 Free
      a95 Free
      a96 Free
      a99 Free
      a100 Free
      a101 Free
      a104 Free
      a109 Free
      a113 Free
      a115 Free
      a117 Free
      a122 Free
      a124 Free
 0 <= f0 <= 0.99
 0 <= f1 <= 0.99
 0 <= f2 <= 0.99
 0 <= f3 <= 0.99
 0 <= f4 <= 0.99
 0 <= f6 <= 0.99
 0 <= f7 <= 0.99
 0 <= f9 <= 0.99
 0 <= f10 <= 0.99
 0 <= f11 <= 0.99
 0 <= f12 <= 0.99
 0 <= f13 <= 0.99
 0 <= f15 <= 0.99
 0 <= f16 <= 0.99
 0 <= f20 <= 0.99
 0 <= f21 <= 0.99
 0 <= f23 <= 0.99
 0 <= f24 <= 0.99
 0 <= f25 <= 0.99
 0 <= f26 <= 0.99
 0 <= f28 <= 0.99
 0 <= f29 <= 0.99
 0 <= f31 <= 0.99
 0 <= f33 <= 0.99
 0 <= f34 <= 0.99
 0 <= f35 <= 0.99
 0 <= f36 <= 0.99
 0 <= f39 <= 0.99
 0 <= f40 <= 0.99
 0 <= f41 <= 0.99
 0 <= f42 <= 0.99
 0 <= f43 <= 0.99
 0 <= f44 <= 0.99
 0 <= f45 <= 0.99
 0 <= f48 <= 0.99
 0 <= f52 <= 0.99
 0 <= f57 <= 0.99
 0 <= f59 <= 0.99
 0 <= f61 <= 0.99
 0 <= f69 <= 0.99
 0 <= f73 <= 0.99
 0 <= f74 <= 0.99
 0 <= f75 <= 0.99
 0 <= f77 <= 0.99
 0 <= f78 <= 0.99
 0 <= f84 <= 0.99
 0 <= f85 <= 0.99
 0 <= f95 <= 0.99
 0 <= f96 <= 0.99
 0 <= f99 <= 0.99
 0 <= f100 <= 0.99
 0 <= f101 <= 0.99
 0 <= f104 <= 0.99
 0 <= f109 <= 0.99
 0 <= f113 <= 0.99
 0 <= f115 <= 0.99
 0 <= f117 <= 0.99
 0 <= f122 <= 0.99
 0 <= f124 <= 0.99
Generals
 a0  a1  a2  a3  a4  a6  a7  a9  a10  a11  a12  a13  a15  a16  a20  a21  a23 
 a24  a25  a26  a28  a29  a31  a33  a34  a35  a36  a39  a40  a41  a42  a43 
 a44  a45  a48  a52  a57  a59  a61  a69  a73  a74  a75  a77  a78  a84  a85 
 a95  a96  a99  a100  a101  a104  a109  a113  a115  a117  a122  a124 
End
